(set-logic QF_S)
(declare-fun var0 () String)
(assert (str.in.re var0 (re.++ (re.union (re.union (str.to.re "000") (str.to.re "111")) (re.union (str.to.re "222") (str.to.re "33"))) (re.++ (re.+ (re.+ (str.to.re "4"))) (re.++ (re.union (re.* (str.to.re "55")) (re.* (str.to.re "66"))) (re.++ (re.+ (re.* (str.to.re "777"))) (re.++ (re.union (re.union (str.to.re "8") (str.to.re "99")) (re.union (str.to.re "aaa") (str.to.re "b"))) (re.++ (re.* (re.+ (str.to.re "cc"))) (re.++ (re.union (re.* (str.to.re "ddd")) (re.* (str.to.re "eee"))) (re.++ (re.+ (re.union (str.to.re "f") (str.to.re "gg"))) (re.++ (re.* (re.union (str.to.re "hhh") (str.to.re "i"))) (re.+ (re.union (str.to.re "jj") (str.to.re "kk"))))))))))))))
(assert (<= 401 (str.len var0)))
(check-sat)